WARNING: for repeatability, setting FPU to use double precision
============================[ Problem Statistics ]=============================
|                                                                             |
|  Number of variables:            50                                         |
|  Number of clauses:             218                                         |
|  Parse time:                   0.00 s                                       |
|                                                                             |
============================[ Search Statistics ]==============================
| Conflicts |          ORIGINAL         |          LEARNT          | Progress |
|           |    Vars  Clauses Literals |    Limit  Clauses Lit/Cl |          |
===============================================================================
===============================================================================
restarts              : 1
conflicts             : 76             (217765 /sec)
decisions             : 81             (0.00 % random) (232092 /sec)
propagations          : 1202           (3444126 /sec)
conflict literals     : 278            (21.69 % deleted)
Memory used           : 20.00 MB
CPU time              : 0.000349 s

UNSATISFIABLE
